
  22   10
  10   10   10   10   10   10   10   10   10   10

   0   0   0   0   0   0   0   0   0   0   0   6 2 6 7 9 20 21 
   2  10  10  10  10  10  10  10  10  10  10   4 17 16 15 3 
   3  10  10  10  10  10  10  10  10  10  10   3 19 18 4 
   9  10  10  10  10  10  10  10  10  10  10   4 14 12 11 5 
   3  10  10  10  10  10  10  10  10  10  10   2 13 8 
   6  10  10  10  10  10  10  10  10  10  10   2 17 12 
   8  10  10  10  10  10  10  10  10  10  10   2 16 11 
   8  10  10  10  10  10  10  10  10  10  10   1 10 
  10  10  10  10  10  10  10  10  10  10  10   1 15 
   9  10  10  10  10  10  10  10  10  10  10   1 22
   5  10  10  10  10  10  10  10  10  10  10   1 22
  10  10  10  10  10  10  10  10  10  10  10   1 22
  10  10  10  10  10  10  10  10  10  10  10   1 22
   1  10  10  10  10  10  10  10  10  10  10   1 22
   9  10  10  10  10  10  10  10  10  10  10   1 22
   7  10  10  10  10  10  10  10  10  10  10   1 22
   2  10  10  10  10  10  10  10  10  10  10   1 22
   8  10  10  10  10  10  10  10  10  10  10   1 22
  10  10  10  10  10  10  10  10  10  10  10   1 22
   3  10  10  10  10  10  10  10  10  10  10   1 22
   8  10  10  10  10  10  10  10  10  10  10   1 22
   0   0   0   0   0   0   0   0   0   0   0   0 
